NAME          LARGE_SET_PARTITION
ROWS
 N  COST
 E  COVER1
 E  COVER2
 E  COVER3
 E  COVER4
 E  COVER5
 E  COVER6
 E  COVER7
 E  COVER8
 E  COVER9
 E  COVER10
 E  COVER11
 E  COVER12
 E  COVER13
 E  COVER14
 E  COVER15
 E  COVER16
 E  COVER17
 E  COVER18
 E  COVER19
 E  COVER20
 E  COVER21
 E  COVER22
 E  COVER23
 E  COVER24
 E  COVER25
 E  COVER26
 E  COVER27
 E  COVER28
 E  COVER29
 E  COVER30
 E  COVER31
 E  COVER32
 E  COVER33
 E  COVER34
 E  COVER35
 E  COVER36
 E  COVER37
 E  COVER38
 E  COVER39
 E  COVER40
 E  COVER41
 E  COVER42
 E  COVER43
 E  COVER44
 E  COVER45
 E  COVER46
 E  COVER47
 E  COVER48
 E  COVER49
 E  COVER50
 E  COVER51
 E  COVER52
 E  COVER53
 E  COVER54
 E  COVER55
 E  COVER56
 E  COVER57
 E  COVER58
 E  COVER59
 E  COVER60
 E  COVER61
 E  COVER62
 E  COVER63
 E  COVER64
 E  COVER65
 E  COVER66
 E  COVER67
 E  COVER68
 E  COVER69
 E  COVER70
 E  COVER71
 E  COVER72
 E  COVER73
 E  COVER74
 E  COVER75
 E  COVER76
 E  COVER77
 E  COVER78
 E  COVER79
 E  COVER80
 E  COVER81
 E  COVER82
 E  COVER83
 E  COVER84
 E  COVER85
 E  COVER86
 E  COVER87
 E  COVER88
 E  COVER89
 E  COVER90
 E  COVER91
 E  COVER92
 E  COVER93
 E  COVER94
 E  COVER95
 E  COVER96
 E  COVER97
 E  COVER98
 E  COVER99
 E  COVER100
COLUMNS
    X1        COST      8    COVER1    1    COVER2    1    COVER3    1    COVER4    1
    X2        COST      4    COVER5    1    COVER6    1    COVER7    1    COVER8    1
    X3        COST      8    COVER9    1    COVER10   1    COVER11   1    COVER12   1
    X4        COST      9    COVER13   1    COVER14   1    COVER15   1    COVER16   1
    X5        COST      2    COVER17   1    COVER18   1    COVER19   1    COVER20   1
    X6        COST      8    COVER1    1    COVER6    1    COVER11   1    COVER16   1
    X7        COST      9    COVER2    1    COVER7    1    COVER12   1    COVER17   1
    X8        COST      1    COVER3    1    COVER8    1    COVER13   1    COVER18   1
    X9        COST      5    COVER4    1    COVER9    1    COVER14   1    COVER19   1
    X10       COST      2    COVER5    1    COVER10   1    COVER15   1    COVER20   1
    X11       COST      8    COVER1    1    COVER7    1    COVER13   1    COVER19   1
    X12       COST      8    COVER2    1    COVER8    1    COVER14   1    COVER20   1
    X13       COST      8    COVER3    1    COVER9    1    COVER15   1    COVER1    1
    X14       COST      9    COVER4    1    COVER10   1    COVER16   1    COVER2    1
    X15       COST      6    COVER5    1    COVER11   1    COVER17   1    COVER3    1
    X16       COST      6    COVER6    1    COVER12   1    COVER18   1    COVER4    1
    X17       COST      10   COVER7    1    COVER13   1    COVER19   1    COVER5    1
    X18       COST      2    COVER8    1    COVER14   1    COVER20   1    COVER6    1
    X19       COST      6    COVER9    1    COVER15   1    COVER1    1    COVER7    1
    X20       COST      9    COVER10   1    COVER16   1    COVER2    1    COVER8    1
    X21       COST      1    COVER11   1    COVER17   1    COVER3    1    COVER9    1
    X22       COST      9    COVER12   1    COVER18   1    COVER4    1    COVER10   1
    X23       COST      2    COVER13   1    COVER19   1    COVER5    1    COVER11   1
    X24       COST      9    COVER14   1    COVER20   1    COVER6    1    COVER12   1
    X25       COST      2    COVER15   1    COVER1    1    COVER7    1    COVER13   1
    X26       COST      2    COVER16   1    COVER2    1    COVER8    1    COVER14   1
    X27       COST      3    COVER17   1    COVER3    1    COVER9    1    COVER15   1
    X28       COST      6    COVER18   1    COVER4    1    COVER10   1    COVER16   1
    X29       COST      3    COVER19   1    COVER5    1    COVER11   1    COVER17   1
    X30       COST      3    COVER20   1    COVER6    1    COVER12   1    COVER18   1
    X4        COVER1      1
    X16       COVER1      1
    X12       COVER1      1
    X2        COVER2      1
    X16       COVER2      1
    X25       COVER3      1
    X10       COVER3      1
    X19       COVER3      1
    X18       COVER3      1
    X7        COVER4      1
    X20       COVER4      1
    X1        COVER5      1
    X23       COVER5      1
    X17       COVER5      1
    X7        COVER5      1
    X3        COVER6      1
    X27       COVER6      1
    X5        COVER7      1
    X19       COVER7      1
    X11       COVER8      1
    X21       COVER8      1
    X14       COVER8      1
    X3        COVER8      1
    X18       COVER9      1
    X8        COVER9      1
    X14       COVER10     1
    X26       COVER10     1
    X13       COVER10     1
    X15       COVER10     1
    X1        COVER11     1
    X15       COVER11     1
    X21       COVER11     1
    X22       COVER12     1
    X24       COVER12     1
    X2        COVER13     1
    X11       COVER13     1
    X23       COVER14     1
    X27       COVER14     1
    X29       COVER14     1
    X19       COVER15     1
    X6        COVER15     1
    X20       COVER16     1
    X4        COVER16     1
    X7        COVER17     1
    X3        COVER17     1
    X23       COVER18     1
    X16       COVER18     1
    X30       COVER18     1
    X16       COVER19     1
    X9        COVER19     1
    X20       COVER19     1
    X28       COVER20     1
    X2        COVER20     1
    X5        COVER20     1
    X22       COVER20     1
    X17       COVER21     1
    X2        COVER21     1
    X8        COVER22     1
    X24       COVER22     1
    X15       COVER23     1
    X29       COVER23     1
    X25       COVER24     1
    X18       COVER24     1
    X6        COVER24     1
    X26       COVER25     1
    X7        COVER25     1
    X18       COVER26     1
    X29       COVER26     1
    X13       COVER26     1
    X11       COVER27     1
    X13       COVER27     1
    X27       COVER27     1
    X26       COVER27     1
    X13       COVER28     1
    X26       COVER28     1
    X7        COVER28     1
    X13       COVER29     1
    X14       COVER29     1
    X23       COVER29     1
    X30       COVER30     1
    X14       COVER30     1
    X18       COVER31     1
    X15       COVER31     1
    X29       COVER31     1
    X9        COVER32     1
    X21       COVER32     1
    X24       COVER32     1
    X7        COVER32     1
    X4        COVER33     1
    X25       COVER33     1
    X27       COVER33     1
    X21       COVER33     1
    X30       COVER34     1
    X29       COVER34     1
    X26       COVER35     1
    X11       COVER35     1
    X15       COVER35     1
    X4        COVER35     1
    X19       COVER36     1
    X30       COVER36     1
    X27       COVER36     1
    X29       COVER36     1
    X10       COVER37     1
    X21       COVER37     1
    X9        COVER37     1
    X1        COVER38     1
    X16       COVER38     1
    X21       COVER38     1
    X27       COVER39     1
    X15       COVER39     1
    X26       COVER40     1
    X20       COVER40     1
    X24       COVER40     1
    X25       COVER40     1
    X17       COVER41     1
    X16       COVER41     1
    X5        COVER41     1
    X9        COVER41     1
    X30       COVER42     1
    X1        COVER42     1
    X3        COVER42     1
    X2        COVER43     1
    X6        COVER43     1
    X18       COVER43     1
    X11       COVER43     1
    X28       COVER44     1
    X6        COVER44     1
    X2        COVER44     1
    X8        COVER44     1
    X21       COVER45     1
    X4        COVER45     1
    X8        COVER45     1
    X3        COVER46     1
    X6        COVER46     1
    X16       COVER46     1
    X15       COVER46     1
    X26       COVER47     1
    X9        COVER47     1
    X19       COVER47     1
    X27       COVER47     1
    X17       COVER48     1
    X30       COVER48     1
    X21       COVER48     1
    X3        COVER49     1
    X2        COVER49     1
    X4        COVER49     1
    X14       COVER49     1
    X5        COVER50     1
    X12       COVER50     1
    X2        COVER50     1
    X6        COVER51     1
    X28       COVER51     1
    X17       COVER51     1
    X16       COVER51     1
    X4        COVER52     1
    X26       COVER52     1
    X12       COVER53     1
    X6        COVER53     1
    X14       COVER53     1
    X27       COVER54     1
    X7        COVER54     1
    X29       COVER54     1
    X7        COVER55     1
    X1        COVER55     1
    X12       COVER56     1
    X21       COVER56     1
    X28       COVER56     1
    X24       COVER57     1
    X13       COVER57     1
    X15       COVER58     1
    X6        COVER58     1
    X8        COVER59     1
    X5        COVER59     1
    X26       COVER60     1
    X5        COVER60     1
    X11       COVER60     1
    X7        COVER60     1
    X6        COVER61     1
    X27       COVER61     1
    X17       COVER61     1
    X24       COVER62     1
    X10       COVER62     1
    X22       COVER63     1
    X21       COVER63     1
    X28       COVER63     1
    X30       COVER63     1
    X2        COVER64     1
    X11       COVER64     1
    X14       COVER65     1
    X15       COVER65     1
    X5        COVER65     1
    X23       COVER66     1
    X13       COVER66     1
    X7        COVER66     1
    X17       COVER66     1
    X24       COVER67     1
    X26       COVER67     1
    X20       COVER67     1
    X20       COVER68     1
    X22       COVER68     1
    X9        COVER68     1
    X19       COVER68     1
    X20       COVER69     1
    X14       COVER69     1
    X9        COVER69     1
    X20       COVER70     1
    X18       COVER70     1
    X27       COVER70     1
    X22       COVER71     1
    X21       COVER71     1
    X12       COVER71     1
    X28       COVER71     1
    X4        COVER72     1
    X10       COVER72     1
    X6        COVER72     1
    X6        COVER73     1
    X16       COVER73     1
    X20       COVER73     1
    X24       COVER74     1
    X6        COVER74     1
    X15       COVER74     1
    X18       COVER75     1
    X8        COVER75     1
    X9        COVER75     1
    X6        COVER76     1
    X24       COVER76     1
    X9        COVER76     1
    X1        COVER76     1
    X21       COVER77     1
    X13       COVER77     1
    X11       COVER77     1
    X1        COVER77     1
    X6        COVER78     1
    X3        COVER78     1
    X20       COVER78     1
    X9        COVER78     1
    X14       COVER79     1
    X3        COVER79     1
    X28       COVER79     1
    X11       COVER80     1
    X1        COVER80     1
    X30       COVER80     1
    X26       COVER80     1
    X22       COVER81     1
    X14       COVER81     1
    X20       COVER81     1
    X7        COVER81     1
    X7        COVER82     1
    X16       COVER82     1
    X28       COVER83     1
    X8        COVER83     1
    X26       COVER83     1
    X14       COVER83     1
    X8        COVER84     1
    X7        COVER84     1
    X22       COVER84     1
    X15       COVER84     1
    X17       COVER85     1
    X23       COVER85     1
    X21       COVER86     1
    X25       COVER86     1
    X9        COVER86     1
    X27       COVER86     1
    X12       COVER87     1
    X22       COVER87     1
    X2        COVER87     1
    X16       COVER87     1
    X17       COVER88     1
    X10       COVER88     1
    X11       COVER89     1
    X18       COVER89     1
    X21       COVER89     1
    X16       COVER90     1
    X24       COVER90     1
    X30       COVER90     1
    X17       COVER90     1
    X13       COVER91     1
    X6        COVER91     1
    X8        COVER91     1
    X11       COVER91     1
    X14       COVER92     1
    X13       COVER92     1
    X8        COVER92     1
    X11       COVER93     1
    X1        COVER93     1
    X1        COVER94     1
    X22       COVER94     1
    X9        COVER94     1
    X28       COVER95     1
    X19       COVER95     1
    X5        COVER95     1
    X6        COVER96     1
    X2        COVER96     1
    X24       COVER97     1
    X2        COVER97     1
    X29       COVER97     1
    X25       COVER97     1
    X22       COVER98     1
    X12       COVER98     1
    X20       COVER98     1
    X11       COVER98     1
    X24       COVER99     1
    X18       COVER99     1
    X7        COVER100    1
    X26       COVER100    1
    X11       COVER100    1
    X9        COVER100    1
RHS
    RHS       COVER1      1
    RHS       COVER2      1
    RHS       COVER3      1
    RHS       COVER4      1
    RHS       COVER5      1
    RHS       COVER6      1
    RHS       COVER7      1
    RHS       COVER8      1
    RHS       COVER9      1
    RHS       COVER10     1
    RHS       COVER11     1
    RHS       COVER12     1
    RHS       COVER13     1
    RHS       COVER14     1
    RHS       COVER15     1
    RHS       COVER16     1
    RHS       COVER17     1
    RHS       COVER18     1
    RHS       COVER19     1
    RHS       COVER20     1
    RHS       COVER21     1
    RHS       COVER22     1
    RHS       COVER23     1
    RHS       COVER24     1
    RHS       COVER25     1
    RHS       COVER26     1
    RHS       COVER27     1
    RHS       COVER28     1
    RHS       COVER29     1
    RHS       COVER30     1
    RHS       COVER31     1
    RHS       COVER32     1
    RHS       COVER33     1
    RHS       COVER34     1
    RHS       COVER35     1
    RHS       COVER36     1
    RHS       COVER37     1
    RHS       COVER38     1
    RHS       COVER39     1
    RHS       COVER40     1
    RHS       COVER41     1
    RHS       COVER42     1
    RHS       COVER43     1
    RHS       COVER44     1
    RHS       COVER45     1
    RHS       COVER46     1
    RHS       COVER47     1
    RHS       COVER48     1
    RHS       COVER49     1
    RHS       COVER50     1
    RHS       COVER51     1
    RHS       COVER52     1
    RHS       COVER53     1
    RHS       COVER54     1
    RHS       COVER55     1
    RHS       COVER56     1
    RHS       COVER57     1
    RHS       COVER58     1
    RHS       COVER59     1
    RHS       COVER60     1
    RHS       COVER61     1
    RHS       COVER62     1
    RHS       COVER63     1
    RHS       COVER64     1
    RHS       COVER65     1
    RHS       COVER66     1
    RHS       COVER67     1
    RHS       COVER68     1
    RHS       COVER69     1
    RHS       COVER70     1
    RHS       COVER71     1
    RHS       COVER72     1
    RHS       COVER73     1
    RHS       COVER74     1
    RHS       COVER75     1
    RHS       COVER76     1
    RHS       COVER77     1
    RHS       COVER78     1
    RHS       COVER79     1
    RHS       COVER80     1
    RHS       COVER81     1
    RHS       COVER82     1
    RHS       COVER83     1
    RHS       COVER84     1
    RHS       COVER85     1
    RHS       COVER86     1
    RHS       COVER87     1
    RHS       COVER88     1
    RHS       COVER89     1
    RHS       COVER90     1
    RHS       COVER91     1
    RHS       COVER92     1
    RHS       COVER93     1
    RHS       COVER94     1
    RHS       COVER95     1
    RHS       COVER96     1
    RHS       COVER97     1
    RHS       COVER98     1
    RHS       COVER99     1
    RHS       COVER100    1
BOUNDS
 LO BND       X1        0
 UP BND       X1        1
 LO BND       X2        0
 UP BND       X2        1
 LO BND       X3        0
 UP BND       X3        1
 LO BND       X4        0
 UP BND       X4        1
 LO BND       X5        0
 UP BND       X5        1
 LO BND       X6        0
 UP BND       X6        1
 LO BND       X7        0
 UP BND       X7        1
 LO BND       X8        0
 UP BND       X8        1
 LO BND       X9        0
 UP BND       X9        1
 LO BND       X10       0
 UP BND       X10       1
 LO BND       X11       0
 UP BND       X11       1
 LO BND       X12       0
 UP BND       X12       1
 LO BND       X13       0
 UP BND       X13       1
 LO BND       X14       0
 UP BND       X14       1
 LO BND       X15       0
 UP BND       X15       1
 LO BND       X16       0
 UP BND       X16       1
 LO BND       X17       0
 UP BND       X17       1
 LO BND       X18       0
 UP BND       X18       1
 LO BND       X19       0
 UP BND       X19       1
 LO BND       X20       0
 UP BND       X20       1
 LO BND       X21       0
 UP BND       X21       1
 LO BND       X22       0
 UP BND       X22       1
 LO BND       X23       0
 UP BND       X23       1
 LO BND       X24       0
 UP BND       X24       1
 LO BND       X25       0
 UP BND       X25       1
 LO BND       X26       0
 UP BND       X26       1
 LO BND       X27       0
 UP BND       X27       1
 LO BND       X28       0
 UP BND       X28       1
 LO BND       X29       0
 UP BND       X29       1
 LO BND       X30       0
 UP BND       X30       1
ENDATA